NAME : n60w20.002.656.tour
COMMENT : Length = 656
COMMENT : Found by LKH [Keld Helsgaun] Tue Nov  7 19:35:17 2017
TYPE : TOUR
DIMENSION : 61
TOUR_SECTION
1
55
27
37
16
60
3
39
51
28
33
26
57
40
25
32
47
30
21
8
58
18
56
29
23
35
12
5
10
11
52
6
46
34
42
31
43
9
59
54
14
44
2
49
45
15
22
13
41
50
24
48
20
36
19
17
4
7
38
61
53
-1
EOF
